162 5
10 10 10 10 10 

0 0 0 0 0 0 1 2 
0 0 0 0 0 0 1 3 
7 4 0 0 0 0 3 12 5 4 
7 7 0 0 0 0 3 11 10 7 
7 8 0 0 0 0 2 9 6 
3 5 0 0 0 0 1 7 
6 10 0 0 0 0 1 8 
4 10 0 0 0 0 1 13 
4 10 0 0 0 0 1 13 
1 5 0 0 0 0 1 13 
10 9 0 0 0 0 1 13 
2 7 0 0 0 0 1 13 
0 0 0 0 0 0 1 14 
0 0 0 0 0 0 4 15 17 18 20 
3 2 0 0 0 0 1 16 
7 8 0 0 0 0 2 23 19 
2 6 0 0 0 0 2 23 19 
4 10 0 0 0 0 2 24 23 
7 10 0 0 0 0 1 21 
3 8 0 0 0 0 1 22 
9 6 0 0 0 0 1 24 
9 9 0 0 0 0 1 23 
2 10 0 0 0 0 1 25 
7 6 0 0 0 0 1 25 
0 0 0 0 0 0 1 26 
0 0 0 0 0 0 4 27 28 29 30 
7 0 0 3 0 0 2 32 31 
6 0 0 8 0 0 2 32 31 
2 0 0 10 0 0 2 32 31 
3 0 0 8 0 0 2 32 31 
6 0 0 7 0 0 1 33 
1 0 0 4 0 0 1 33 
5 0 0 10 0 0 2 35 34 
2 0 0 10 0 0 1 36 
4 0 0 5 0 0 1 36 
2 0 0 10 0 0 1 37 
0 0 0 0 0 0 5 38 60 72 94 116 
0 0 0 0 0 0 3 39 41 46 
4 0 3 0 0 4 1 40 
1 0 5 0 0 10 3 58 52 42 
3 0 5 0 0 5 2 52 42 
8 0 6 0 0 5 4 57 56 51 43 
7 0 8 0 0 10 2 50 44 
2 0 7 0 0 7 2 54 45 
1 0 8 0 0 7 1 47 
6 0 6 0 0 10 2 55 49 
9 0 10 0 0 6 1 48 
10 0 6 0 0 7 1 49 
9 0 8 0 0 9 1 53 
3 0 10 0 0 5 1 55 
1 0 6 0 0 4 1 54 
3 0 10 0 0 10 2 56 140 
7 0 7 0 0 8 1 59 
6 0 8 0 0 8 1 59 
10 0 10 0 0 8 1 59 
9 0 10 0 0 10 1 59 
4 0 10 0 0 9 1 59 
2 0 7 0 0 8 1 59 
0 0 0 0 0 0 1 162 
0 0 0 0 0 0 3 61 62 63 
8 0 0 0 7 0 3 70 65 64 
8 0 0 0 8 0 2 70 64 
3 0 0 0 6 0 3 70 64 79 
5 0 0 0 6 0 2 68 66 
6 0 0 0 9 0 1 66 
9 0 0 0 10 0 1 67 
1 0 0 0 5 0 1 69 
5 0 0 0 10 0 1 69 
9 0 0 0 9 0 1 71 
8 0 0 0 5 0 1 71 
0 0 0 0 0 0 2 138 150 
0 0 0 0 0 0 2 73 75 
7 0 0 2 1 0 2 78 74 
9 0 0 5 8 0 1 76 
10 0 0 5 10 0 1 76 
8 0 0 10 7 0 4 88 87 82 77 
1 0 0 7 10 0 3 86 81 79 
5 0 0 8 7 0 2 82 80 
8 0 0 10 10 0 2 91 80 
2 0 0 7 6 0 2 90 83 
2 0 0 10 10 0 2 90 84 
1 0 0 10 7 0 3 92 90 89 
3 0 0 10 7 0 1 84 
6 0 0 7 9 0 1 85 
6 0 0 10 10 0 1 89 
10 0 0 6 10 0 1 91 
1 0 0 10 6 0 1 92 
9 0 0 6 7 0 2 91 131 
1 0 0 8 6 0 1 93 
7 0 0 3 7 0 1 93 
7 0 0 9 4 0 1 93 
10 0 0 7 8 0 1 93 
0 0 0 0 0 0 1 162 
0 0 0 0 0 0 2 95 143 
5 1 0 0 0 4 2 99 96 
8 10 0 0 0 5 1 97 
6 10 0 0 0 6 2 103 98 
3 4 0 0 0 8 2 114 100 
3 10 0 0 0 8 2 114 100 
10 8 0 0 0 8 4 113 107 106 101 
4 10 0 0 0 7 3 112 111 102 
3 6 0 0 0 10 2 109 104 
3 7 0 0 0 10 4 111 110 109 108 
8 6 0 0 0 4 2 110 105 
10 10 0 0 0 8 1 108 
6 10 0 0 0 7 1 109 
7 10 0 0 0 4 1 108 
3 10 0 0 0 9 1 115 
9 7 0 0 0 10 1 115 
10 9 0 0 0 10 1 115 
8 5 0 0 0 9 1 115 
6 5 0 0 0 10 1 115 
3 5 0 0 0 5 1 115 
5 7 0 0 0 8 1 115 
0 0 0 0 0 0 1 162 
0 0 0 0 0 0 2 117 119 
5 4 2 0 0 0 2 123 118 
5 7 6 0 0 0 1 120 
1 9 5 0 0 0 1 120 
5 5 10 0 0 0 3 125 122 121 
4 6 10 0 0 0 3 136 127 124 
1 10 8 0 0 0 3 130 128 127 
9 9 6 0 0 0 3 128 126 125 
10 7 8 0 0 0 2 130 126 
1 5 10 0 0 0 3 135 134 131 
3 10 10 0 0 0 2 134 129 
3 5 10 0 0 0 2 134 129 
2 8 10 0 0 0 3 136 134 133 
9 6 6 0 0 0 1 131 
3 10 8 0 0 0 2 135 133 
5 10 6 0 0 0 1 132 
2 8 8 0 0 0 1 133 
9 7 7 0 0 0 1 137 
3 10 9 0 0 0 1 137 
4 6 5 0 0 0 1 137 
9 8 6 0 0 0 1 137 
0 0 0 0 0 0 1 162 
0 0 0 0 0 0 3 139 140 141 
4 0 2 0 0 0 3 146 143 142 
6 0 3 0 0 0 3 146 144 143 
9 0 8 0 0 0 3 148 146 144 
1 0 10 0 0 0 1 144 
3 0 9 0 0 0 2 148 147 
5 0 9 0 0 0 1 145 
1 0 8 0 0 0 1 147 
10 0 10 0 0 0 1 147 
6 0 8 0 0 0 1 149 
3 0 8 0 0 0 1 149 
0 0 0 0 0 0 1 162 
0 0 0 0 0 0 2 151 152 
8 0 2 0 0 0 2 160 153 
7 0 7 0 0 0 2 156 154 
1 0 5 0 0 0 2 159 155 
7 0 10 0 0 0 4 160 159 158 157 
10 0 7 0 0 0 2 158 156 
10 0 10 0 0 0 1 157 
1 0 6 0 0 0 1 161 
8 0 10 0 0 0 1 161 
3 0 10 0 0 0 1 161 
7 0 8 0 0 0 1 161 
0 0 0 0 0 0 1 162 
0 0 0 0 0 0 0 
